NAME : RWP-Toy_5-1
COMMENT : Toy. 5 postmen. Max route 31304=21599.76s=6h.
TYPE : TSP
DIMENSION : 6
VEHICLES : 5
SCALE : 100000
DISTANCE : 21599.760000
EDGE_WEIGHT_TYPE : EXPLICIT
EDGE_WEIGHT_FORMAT : UPPER_ROW
EDGE_WEIGHT_SECTION
635.498874
159.647263
536.793104
697.393064
721.545071

526.117000
558.597086
708.064348
1339.672664

558.379998
718.793537
842.691415

169.947785
1176.038198

1336.638158

DEPOT_SECTION
1
-1
EOF
